NAME : E151C14r.2362758.tour
COMMENT : Length = 2362758
COMMENT : Found by LKH [Keld Helsgaun] Tue May  8 13:50:38 2018
TYPE : TOUR
DIMENSION : 164
TOUR_SECTION
1
6
161
37
49
54
78
82
83
80
79
84
81
22
21
27
32
47
38
46
40
159
126
128
129
127
133
135
26
24
34
17
28
35
31
18
23
140
139
138
160
105
101
99
102
75
72
77
5
71
10
7
152
111
116
125
118
124
120
123
121
122
119
108
103
162
42
44
43
96
48
36
13
154
109
115
113
112
114
117
130
132
134
131
136
143
137
158
92
89
53
65
66
67
64
144
150
147
145
149
68
70
8
164
107
100
106
104
110
15
156
87
98
97
88
85
90
86
93
91
151
95
94
50
51
39
52
41
3
163
12
74
69
55
56
61
58
57
60
62
63
59
148
146
73
155
14
45
33
30
20
29
25
16
19
141
142
157
9
76
2
153
4
11
-1
EOF
